6120
0 1 0 0 0 0 1 0 0 1 0 0 0 0 0 0 0 0 1 0 1 1 0 1 0 0 0 0 1 1 
18 21 18 28 23 20 9 21 1 29 23 23 23 9 18 6 21 21 18 21 9 9 20 20 20 23 29 6 29 29 29 23 23 23 21 20 1 1 21 6 18 1 28 23 29 23 9 20 9 6 21 9 9 18 6 6 21 20 23 29 29 29 1 29 28 28 1 28 28 29 
